(set-option :trace true)
(declare-fun a () int)
(declare-fun b () int)
(declare-fun c () int)
(declare-fun d () int)
(declare-fun e () string)
(assert (xor (< a 8 (* a b)) true (< (/ c d) (str.len e) a b)))
(assert (= "bef" (str.substr e c d)))
(check-sat)